c nIsolatedPIs 0
c maxPI 32
p cnf 232 601
c gate 33 -11 -27 0
-11 -33 0
-27 -33 0
11 27 33 0
c gate 34 12 28 0
12 -34 0
28 -34 0
-12 -28 34 0
c gate 35 -12 -28 0
-12 -35 0
-28 -35 0
12 28 35 0
c gate 36 -34 -35 0
-34 -36 0
-35 -36 0
34 35 36 0
c gate 37 -33 36 0
-33 -37 0
36 -37 0
33 -36 37 0
c gate 38 8 24 0
8 -38 0
24 -38 0
-8 -24 38 0
c gate 39 9 25 0
9 -39 0
25 -39 0
-9 -25 39 0
c gate 40 -38 -39 0
-38 -40 0
-39 -40 0
38 39 40 0
c gate 41 -7 -23 0
-7 -41 0
-23 -41 0
7 23 41 0
c gate 42 7 23 0
7 -42 0
23 -42 0
-7 -23 42 0
c gate 43 -41 -42 0
-41 -43 0
-42 -43 0
41 42 43 0
c gate 44 -6 -22 0
-6 -44 0
-22 -44 0
6 22 44 0
c gate 45 -5 -21 0
-5 -45 0
-21 -45 0
5 21 45 0
c gate 46 -4 -20 0
-4 -46 0
-20 -46 0
4 20 46 0
c gate 47 -45 -46 0
-45 -47 0
-46 -47 0
45 46 47 0
c gate 48 1 17 0
1 -48 0
17 -48 0
-1 -17 48 0
c gate 49 2 18 0
2 -49 0
18 -49 0
-2 -18 49 0
c gate 50 -48 -49 0
-48 -50 0
-49 -50 0
48 49 50 0
c gate 51 -3 19 0
-3 -51 0
19 -51 0
3 -19 51 0
c gate 52 3 -19 0
3 -52 0
-19 -52 0
-3 19 52 0
c gate 53 -51 -52 0
-51 -53 0
-52 -53 0
51 52 53 0
c gate 54 -2 -18 0
-2 -54 0
-18 -54 0
2 18 54 0
c gate 55 -53 -54 0
-53 -55 0
-54 -55 0
53 54 55 0
c gate 56 -50 55 0
-50 -56 0
55 -56 0
50 -55 56 0
c gate 57 3 19 0
3 -57 0
19 -57 0
-3 -19 57 0
c gate 58 4 20 0
4 -58 0
20 -58 0
-4 -20 58 0
c gate 59 -57 -58 0
-57 -59 0
-58 -59 0
57 58 59 0
c gate 60 -56 59 0
-56 -60 0
59 -60 0
56 -59 60 0
c gate 61 47 -60 0
47 -61 0
-60 -61 0
-47 60 61 0
c gate 62 6 22 0
6 -62 0
22 -62 0
-6 -22 62 0
c gate 63 -44 -62 0
-44 -63 0
-62 -63 0
44 62 63 0
c gate 64 5 21 0
5 -64 0
21 -64 0
-5 -21 64 0
c gate 65 63 -64 0
63 -65 0
-64 -65 0
-63 64 65 0
c gate 66 -61 65 0
-61 -66 0
65 -66 0
61 -65 66 0
c gate 67 -44 -66 0
-44 -67 0
-66 -67 0
44 66 67 0
c gate 68 43 -67 0
43 -68 0
-67 -68 0
-43 67 68 0
c gate 69 -8 -24 0
-8 -69 0
-24 -69 0
8 24 69 0
c gate 70 -41 -69 0
-41 -70 0
-69 -70 0
41 69 70 0
c gate 71 -68 70 0
-68 -71 0
70 -71 0
68 -70 71 0
c gate 72 40 -71 0
40 -72 0
-71 -72 0
-40 71 72 0
c gate 73 -10 -26 0
-10 -73 0
-26 -73 0
10 26 73 0
c gate 74 -9 -25 0
-9 -74 0
-25 -74 0
9 25 74 0
c gate 75 -73 -74 0
-73 -75 0
-74 -75 0
73 74 75 0
c gate 76 -72 75 0
-72 -76 0
75 -76 0
72 -75 76 0
c gate 77 10 26 0
10 -77 0
26 -77 0
-10 -26 77 0
c gate 78 11 27 0
11 -78 0
27 -78 0
-11 -27 78 0
c gate 79 -77 -78 0
-77 -79 0
-78 -79 0
77 78 79 0
c gate 80 -76 79 0
-76 -80 0
79 -80 0
76 -79 80 0
c gate 81 37 -80 0
37 -81 0
-80 -81 0
-37 80 81 0
c gate 82 -13 -29 0
-13 -82 0
-29 -82 0
13 29 82 0
c gate 83 13 29 0
13 -83 0
29 -83 0
-13 -29 83 0
c gate 84 -82 -83 0
-82 -84 0
-83 -84 0
82 83 84 0
c gate 85 -34 -81 0
-34 -85 0
-81 -85 0
34 81 85 0
c gate 86 -84 -85 0
-84 -86 0
-85 -86 0
84 85 86 0
c gate 87 -81 -86 0
-81 -87 0
-86 -87 0
81 86 87 0
c gate 88 10 -26 0
10 -88 0
-26 -88 0
-10 26 88 0
c gate 89 9 -25 0
9 -89 0
-25 -89 0
-9 25 89 0
c gate 90 -9 25 0
-9 -90 0
25 -90 0
9 -25 90 0
c gate 91 8 -24 0
8 -91 0
-24 -91 0
-8 24 91 0
c gate 92 -38 -69 0
-38 -92 0
-69 -92 0
38 69 92 0
c gate 93 -7 23 0
-7 -93 0
23 -93 0
7 -23 93 0
c gate 94 6 -22 0
6 -94 0
-22 -94 0
-6 22 94 0
c gate 95 -43 -94 0
-43 -95 0
-94 -95 0
43 94 95 0
c gate 96 -2 18 0
-2 -96 0
18 -96 0
2 -18 96 0
c gate 97 -1 17 0
-1 -97 0
17 -97 0
1 -17 97 0
c gate 98 -96 -97 0
-96 -98 0
-97 -98 0
96 97 98 0
c gate 99 2 -18 0
2 -99 0
-18 -99 0
-2 18 99 0
c gate 100 -52 -99 0
-52 -100 0
-99 -100 0
52 99 100 0
c gate 101 -98 100 0
-98 -101 0
100 -101 0
98 -100 101 0
c gate 102 -4 20 0
-4 -102 0
20 -102 0
4 -20 102 0
c gate 103 -51 -102 0
-51 -103 0
-102 -103 0
51 102 103 0
c gate 104 -101 103 0
-101 -104 0
103 -104 0
101 -103 104 0
c gate 105 5 -21 0
5 -105 0
-21 -105 0
-5 21 105 0
c gate 106 4 -20 0
4 -106 0
-20 -106 0
-4 20 106 0
c gate 107 -105 -106 0
-105 -107 0
-106 -107 0
105 106 107 0
c gate 108 -104 107 0
-104 -108 0
107 -108 0
104 -107 108 0
c gate 109 -5 21 0
-5 -109 0
21 -109 0
5 -21 109 0
c gate 110 -63 -109 0
-63 -110 0
-109 -110 0
63 109 110 0
c gate 111 -108 110 0
-108 -111 0
110 -111 0
108 -110 111 0
c gate 112 95 -111 0
95 -112 0
-111 -112 0
-95 111 112 0
c gate 113 -93 -112 0
-93 -113 0
-112 -113 0
93 112 113 0
c gate 114 -92 113 0
-92 -114 0
113 -114 0
92 -113 114 0
c gate 115 -91 -114 0
-91 -115 0
-114 -115 0
91 114 115 0
c gate 116 -90 -115 0
-90 -116 0
-115 -116 0
90 115 116 0
c gate 117 -89 -116 0
-89 -117 0
-116 -117 0
89 116 117 0
c gate 118 -73 -77 0
-73 -118 0
-77 -118 0
73 77 118 0
c gate 119 -117 -118 0
-117 -119 0
-118 -119 0
117 118 119 0
c gate 120 -88 -119 0
-88 -120 0
-119 -120 0
88 119 120 0
c gate 121 -33 -78 0
-33 -121 0
-78 -121 0
33 78 121 0
c gate 122 120 -121 0
120 -122 0
-121 -122 0
-120 121 122 0
c gate 123 -14 -30 0
-14 -123 0
-30 -123 0
14 30 123 0
c gate 124 14 30 0
14 -124 0
30 -124 0
-14 -30 124 0
c gate 125 -123 -124 0
-123 -125 0
-124 -125 0
123 124 125 0
c gate 126 16 32 0
16 -126 0
32 -126 0
-16 -32 126 0
c gate 127 -16 -32 0
-16 -127 0
-32 -127 0
16 32 127 0
c gate 128 -126 -127 0
-126 -128 0
-127 -128 0
126 127 128 0
c gate 129 -125 -128 0
-125 -129 0
-128 -129 0
125 128 129 0
c gate 130 -15 -31 0
-15 -130 0
-31 -130 0
15 31 130 0
c gate 131 15 31 0
15 -131 0
31 -131 0
-15 -31 131 0
c gate 132 -130 -131 0
-130 -132 0
-131 -132 0
130 131 132 0
c gate 133 -36 -132 0
-36 -133 0
-132 -133 0
36 132 133 0
c gate 134 -84 133 0
-84 -134 0
133 -134 0
84 -133 134 0
c gate 135 129 134 0
129 -135 0
134 -135 0
-129 -134 135 0
c gate 136 122 135 0
122 -136 0
135 -136 0
-122 -135 136 0
c gate 137 -120 121 0
-120 -137 0
121 -137 0
120 -121 137 0
c gate 138 -122 -137 0
-122 -138 0
-137 -138 0
122 137 138 0
c gate 139 -89 -91 0
-89 -139 0
-91 -139 0
89 91 139 0
c gate 140 -118 -139 0
-118 -140 0
-139 -140 0
118 139 140 0
c gate 141 -88 -140 0
-88 -141 0
-140 -141 0
88 140 141 0
c gate 142 121 -141 0
121 -142 0
-141 -142 0
-121 141 142 0
c gate 143 -138 -142 0
-138 -143 0
-142 -143 0
138 142 143 0
c gate 144 118 139 0
118 -144 0
139 -144 0
-118 -139 144 0
c gate 145 -140 -144 0
-140 -145 0
-144 -145 0
140 144 145 0
c gate 146 117 118 0
117 -146 0
118 -146 0
-117 -118 146 0
c gate 147 -119 -146 0
-119 -147 0
-146 -147 0
119 146 147 0
c gate 148 145 -147 0
145 -148 0
-147 -148 0
-145 147 148 0
c gate 149 -145 147 0
-145 -149 0
147 -149 0
145 -147 149 0
c gate 150 68 92 0
68 -150 0
92 -150 0
-68 -92 150 0
c gate 151 -66 -68 0
-66 -151 0
-68 -151 0
66 68 151 0
c gate 152 48 49 0
48 -152 0
49 -152 0
-48 -49 152 0
c gate 153 151 152 0
151 -153 0
152 -153 0
-151 -152 153 0
c gate 154 -150 -153 0
-150 -154 0
-153 -154 0
150 153 154 0
c gate 155 87 154 0
87 -155 0
154 -155 0
-87 -154 155 0
c gate 156 40 -70 0
40 -156 0
-70 -156 0
-40 70 156 0
c gate 157 37 75 0
37 -157 0
75 -157 0
-37 -75 157 0
c gate 158 -156 157 0
-156 -158 0
157 -158 0
156 -157 158 0
c gate 159 80 158 0
80 -159 0
158 -159 0
-80 -158 159 0
c gate 160 150 -159 0
150 -160 0
-159 -160 0
-150 159 160 0
c gate 161 87 -160 0
87 -161 0
-160 -161 0
-87 160 161 0
c gate 162 -82 -85 0
-82 -162 0
-85 -162 0
82 85 162 0
c gate 163 -83 -162 0
-83 -163 0
-162 -163 0
83 162 163 0
c gate 164 125 163 0
125 -164 0
163 -164 0
-125 -163 164 0
c gate 165 -123 -164 0
-123 -165 0
-164 -165 0
123 164 165 0
c gate 166 -131 -165 0
-131 -166 0
-165 -166 0
131 165 166 0
c gate 167 -130 -166 0
-130 -167 0
-166 -167 0
130 166 167 0
c gate 168 128 -167 0
128 -168 0
-167 -168 0
-128 167 168 0
c gate 169 -128 167 0
-128 -169 0
167 -169 0
128 -167 169 0
c gate 170 -168 -169 0
-168 -170 0
-169 -170 0
168 169 170 0
c gate 171 -34 -83 0
-34 -171 0
-83 -171 0
34 83 171 0
c gate 172 125 171 0
125 -172 0
171 -172 0
-125 -171 172 0
c gate 173 -125 -171 0
-125 -173 0
-171 -173 0
125 171 173 0
c gate 174 -172 -173 0
-172 -174 0
-173 -174 0
172 173 174 0
c gate 175 -125 -163 0
-125 -175 0
-163 -175 0
125 163 175 0
c gate 176 -164 -175 0
-164 -176 0
-175 -176 0
164 175 176 0
c gate 177 174 -176 0
174 -177 0
-176 -177 0
-174 176 177 0
c gate 178 -86 -177 0
-86 -178 0
-177 -178 0
86 177 178 0
c gate 179 -174 176 0
-174 -179 0
176 -179 0
174 -176 179 0
c gate 180 -177 -179 0
-177 -180 0
-179 -180 0
177 179 180 0
c gate 181 -175 -180 0
-175 -181 0
-180 -181 0
175 180 181 0
c gate 182 -178 -181 0
-178 -182 0
-181 -182 0
178 181 182 0
c gate 183 165 -172 0
165 -183 0
-172 -183 0
-165 172 183 0
c gate 184 -132 -165 0
-132 -184 0
-165 -184 0
132 165 184 0
c gate 185 -123 -172 0
-123 -185 0
-172 -185 0
123 172 185 0
c gate 186 132 -185 0
132 -186 0
-185 -186 0
-132 185 186 0
c gate 187 -184 -186 0
-184 -187 0
-186 -187 0
184 186 187 0
c gate 188 -183 187 0
-183 -188 0
187 -188 0
183 -187 188 0
c gate 189 -182 -188 0
-182 -189 0
-188 -189 0
182 188 189 0
c gate 190 -170 -189 0
-170 -190 0
-189 -190 0
170 189 190 0
c gate 191 170 189 0
170 -191 0
189 -191 0
-170 -189 191 0
c gate 192 -130 -186 0
-130 -192 0
-186 -192 0
130 186 192 0
c gate 193 128 -192 0
128 -193 0
-192 -193 0
-128 192 193 0
c gate 194 -128 192 0
-128 -194 0
192 -194 0
128 -192 194 0
c gate 195 -193 -194 0
-193 -195 0
-194 -195 0
193 194 195 0
c gate 196 -191 195 0
-191 -196 0
195 -196 0
191 -195 196 0
c gate 197 -190 -196 0
-190 -197 0
-196 -197 0
190 196 197 0
c gate 198 -161 197 0
-161 -198 0
197 -198 0
161 -197 198 0
c gate 199 -155 -198 0
-155 -199 0
-198 -199 0
155 198 199 0
c gate 200 167 193 0
167 -200 0
193 -200 0
-167 -193 200 0
c gate 201 -111 -200 0
-111 -201 0
-200 -201 0
111 200 201 0
c gate 202 199 201 0
199 -202 0
201 -202 0
-199 -201 202 0
c gate 203 43 111 0
43 -203 0
111 -203 0
-43 -111 203 0
c gate 204 -111 -126 0
-111 -204 0
-126 -204 0
111 126 204 0
c gate 205 -193 204 0
-193 -205 0
204 -205 0
193 -204 205 0
c gate 206 168 205 0
168 -206 0
205 -206 0
-168 -205 206 0
c gate 207 -203 -206 0
-203 -207 0
-206 -207 0
203 206 207 0
c gate 208 -202 207 0
-202 -208 0
207 -208 0
202 -207 208 0
c gate 209 92 95 0
92 -209 0
95 -209 0
-92 -95 209 0
c gate 210 113 209 0
113 -210 0
209 -210 0
-113 -209 210 0
c gate 211 208 -210 0
208 -211 0
-210 -211 0
-208 210 211 0
c gate 212 -114 -211 0
-114 -212 0
-211 -212 0
114 211 212 0
c gate 213 -89 -90 0
-89 -213 0
-90 -213 0
89 90 213 0
c gate 214 114 -213 0
114 -214 0
-213 -214 0
-114 213 214 0
c gate 215 -212 -214 0
-212 -215 0
-214 -215 0
212 214 215 0
c gate 216 -149 215 0
-149 -216 0
215 -216 0
149 -215 216 0
c gate 217 -148 -216 0
-148 -217 0
-216 -217 0
148 216 217 0
c gate 218 -143 -217 0
-143 -218 0
-217 -218 0
143 217 218 0
c gate 219 120 142 0
120 -219 0
142 -219 0
-120 -142 219 0
c gate 220 -122 -219 0
-122 -220 0
-219 -220 0
122 219 220 0
c gate 221 -218 220 0
-218 -221 0
220 -221 0
218 -220 221 0
c gate 222 -136 -221 0
-136 -222 0
-221 -222 0
136 221 222 0
c gate 223 -154 -160 0
-154 -223 0
-160 -223 0
154 160 223 0
c gate 224 222 -223 0
222 -224 0
-223 -224 0
-222 223 224 0
c gate 225 48 54 0
48 -225 0
54 -225 0
-48 -54 225 0
c gate 226 151 -225 0
151 -226 0
-225 -226 0
-151 225 226 0
c gate 227 -159 -226 0
-159 -227 0
-226 -227 0
159 226 227 0
c gate 228 -222 -227 0
-222 -228 0
-227 -228 0
222 227 228 0
c gate 229 -224 -228 0
-224 -229 0
-228 -229 0
224 228 229 0
c gate 230 87 -229 0
87 -230 0
-229 -230 0
-87 229 230 0
c gate 231 -87 229 0
-87 -231 0
229 -231 0
87 -229 231 0
c gate 232 -230 -231 0
-230 -232 0
-231 -232 0
230 231 232 0
c PO
232 0
